unknown
(model
; cardinality of BoundSet is 2
(declare-sort BoundSet 0)
; rep: @uc_BoundSet_0
; rep: @uc_BoundSet_1
; cardinality of UnboundSet is 1
(declare-sort UnboundSet 0)
(declare-fun groundTerm_3 () UnboundSet)
(define-fun IsTiedTo ((BOUND_VARIABLE_462 BoundSet) (BOUND_VARIABLE_463 BoundSet)) Bool true)
(define-fun IsSudden ((BOUND_VARIABLE_466 BoundSet)) Bool true)
(define-fun IsOccurred ((BOUND_VARIABLE_462 BoundSet) (BOUND_VARIABLE_463 BoundSet)) Bool false)
(define-fun IsSeveralWeeksAgo ((BOUND_VARIABLE_466 BoundSet)) Bool false)
)
sat
(model
; cardinality of BoundSet is 1
(declare-sort BoundSet 0)
; rep: @uc_BoundSet_0
; cardinality of UnboundSet is 1
(declare-sort UnboundSet 0)
(declare-fun groundTerm_7 () UnboundSet)
(define-fun IsTiedTo ((BOUND_VARIABLE_511 BoundSet) (BOUND_VARIABLE_512 BoundSet)) Bool true)
(define-fun IsSudden ((BOUND_VARIABLE_515 BoundSet)) Bool true)
(define-fun IsOccurred ((BOUND_VARIABLE_511 BoundSet) (BOUND_VARIABLE_512 BoundSet)) Bool true)
(define-fun IsSeveralWeeksAgo ((BOUND_VARIABLE_515 BoundSet)) Bool false)
)
